400
750
600
599
599
598
598
597
597
593
593
593
592
591
591
589
587
587
587
587
585
585
585
584
583
580
579
579
577
573
572
570
569
569
568
567
567
566
565
565
564
563
563
559
558
558
558
558
557
556
556
556
555
555
554
554
552
552
551
550
549
548
547
544
543
543
541
538
538
536
533
533
533
531
531
530
529
528
528
525
525
524
519
518
518
515
515
515
515
514
514
513
511
509
507
507
507
506
504
501
500
498
498
497
496
490
489
487
487
487
485
484
483
482
482
481
480
479
477
476
475
470
470
464
463
463
461
459
459
458
457
457
454
452
452
452
451
451
450
448
448
444
443
442
440
439
437
437
437
436
436
435
432
432
430
427
420
420
419
418
417
416
416
415
414
413
413
410
409
409
408
407
406
406
406
405
405
404
400
399
398
395
394
393
393
391
391
386
382
382
382
382
379
377
377
376
374
374
373
372
372
368
366
364
364
362
361
360
360
359
355
355
352
352
351
351
350
347
345
345
345
344
343
343
343
342
341
338
337
335
334
333
333
332
331
330
329
328
327
327
324
323
322
321
321
319
318
318
317
317
316
316
315
314
313
311
311
310
309
306
302
302
300
296
295
295
293
293
293
293
292
289
288
287
286
286
286
286
282
282
281
280
280
278
277
276
276
276
276
276
275
273
272
267
266
265
264
262
262
262
262
261
258
255
255
254
253
253
252
252
251
248
247
244
244
243
243
242
238
238
237
236
231
230
229
229
229
228
226
226
224
223
222
220
218
217
217
217
216
215
215
214
212
211
211
211
210
209
208
207
205
204
201
200
199
199
195
194
194
193
192
191
191
191
189
188
186
186
186
184
183
183
182
181
181
180
180
179
178
178
174
174
171
169
168
168
167
166
164
164
161
161
160
159
159
157
157
153
153
153
151
150
